\ Equation counts
\     Total        E        G        L        N        X        C        B
\        36       36        0        0        0        0        0        0
\ 
\ Variable counts
\                  x        b        i      s1s      s2s       sc       si
\     Total     cont   binary  integer     sos1     sos2    scont     sint
\       108        0      108        0        0        0        0        0
\ 
\ Nonzero counts
\     Total    const       NL      DLL
\       216      108      108        0
\ 
Minimize
 obj: 0 b1 + 0 b2 + 0 b3 + 0 b4 + 0 b5 + 0 b6 + 0 b7 + 0 b8 + 0 b9 + 0 b10 + 0 b11 + 0 b12 + 0 b13 + 0 b14 
  + 0 b15 + 0 b16 + 0 b17 + 0 b18 + 0 b19 + 0 b20 + 0 b21 + 0 b22 + 0 b23 + 0 b24 + 0 b25 + 0 b26 + 0 b27 
  + 0 b28 + 0 b29 + 0 b30 + 0 b31 + 0 b32 + 0 b33 + 0 b34 + 0 b35 + 0 b36 + 0 b37 + 0 b38 + 0 b39 + 0 b40 
  + 0 b41 + 0 b42 + 0 b43 + 0 b44 + 0 b45 + 0 b46 + 0 b47 + 0 b48 + 0 b49 + 0 b50 + 0 b51 + 0 b52 + 0 b53 
  + 0 b54 + 0 b55 + 0 b56 + 0 b57 + 0 b58 + 0 b59 + 0 b60 + 0 b61 + 0 b62 + 0 b63 + 0 b64 + 0 b65 + 0 b66 
  + 0 b67 + 0 b68 + 0 b69 + 0 b70 + 0 b71 + 0 b72 + 0 b73 + 0 b74 + 0 b75 + 0 b76 + 0 b77 + 0 b78 + 0 b79 
  + 0 b80 + 0 b81 + 0 b82 + 0 b83 + 0 b84 + 0 b85 + 0 b86 + 0 b87 + 0 b88 + 0 b89 + 0 b90 + 0 b91 + 0 b92 
  + 0 b93 + 0 b94 + 0 b95 + 0 b96 + 0 b97 + 0 b98 + 0 b99 + 0 b100 + 0 b101 + 0 b102 + 0 b103 + 0 b104 
  + 0 b105 + 0 b106 + 0 b107 + 0 b108 + [ 100156 b1 * b4 + 2.3544e5 b1 * b16 - 86098 b1 * b19 + 2.631e4 b1 * b91 
  + 100156 b2 * b5 + 2.3544e5 b2 * b17 - 86098 b2 * b20 + 2.631e4 b2 * b92 + 100156 b3 * b6 + 2.3544e5 b3 * b18 
  - 86098 b3 * b21 + 2.631e4 b3 * b93 + 38902 b4 * b7 - 1.6207e5 b4 * b22 - 2.1102e5 b4 * b94 + 38902 b5 * b8 
  - 1.6207e5 b5 * b23 - 2.1102e5 b5 * b95 + 38902 b6 * b9 - 1.6207e5 b6 * b24 - 2.1102e5 b6 * b96 - 6.307e4 b7 * b10 
  - 183616 b7 * b25 + 6502 b7 * b97 - 6.307e4 b8 * b11 - 183616 b8 * b26 + 6502 b8 * b98 - 6.307e4 b9 * b12 
  - 183616 b9 * b27 + 6502 b9 * b99 + 288114 b10 * b13 - 204478 b10 * b28 + 50768 b10 * b100 + 288114 b11 * b14 
  - 204478 b11 * b29 + 50768 b11 * b101 + 288114 b12 * b15 - 204478 b12 * b30 + 50768 b12 * b102 - 157312 b13 * b16 
  - 313982 b13 * b31 - 53576 b13 * b103 - 157312 b14 * b17 - 313982 b14 * b32 - 53576 b14 * b104 - 157312 b15 * b18 
  - 313982 b15 * b33 - 53576 b15 * b105 - 81258 b16 * b34 + 374678 b16 * b106 - 81258 b17 * b35 + 374678 b17 * b107 
  - 81258 b18 * b36 + 374678 b18 * b108 - 128246 b19 * b22 + 387914 b19 * b34 - 8.543e4 b19 * b37 - 128246 b20 * b23 
  + 387914 b20 * b35 - 8.543e4 b20 * b38 - 128246 b21 * b24 + 387914 b21 * b36 - 8.543e4 b21 * b39 - 219368 b22 * b25 
  - 1.408e4 b22 * b40 - 219368 b23 * b26 - 1.408e4 b23 * b41 - 219368 b24 * b27 - 1.408e4 b24 * b42 - 208214 b25 * b28 
  + 9.49e3 b25 * b43 - 208214 b26 * b29 + 9.49e3 b26 * b44 - 208214 b27 * b30 + 9.49e3 b27 * b45 - 179536 b28 * b31 
  + 222636 b28 * b46 - 179536 b29 * b32 + 222636 b29 * b47 - 179536 b30 * b33 + 222636 b30 * b48 - 1.7532e5 b31 * b34 
  - 1.187e5 b31 * b49 - 1.7532e5 b32 * b35 - 1.187e5 b32 * b50 - 1.7532e5 b33 * b36 - 1.187e5 b33 * b51 
  - 1.0699e5 b34 * b52 - 1.0699e5 b35 * b53 - 1.0699e5 b36 * b54 + 197232 b37 * b40 - 332554 b37 * b52 
  + 242612 b37 * b55 + 197232 b38 * b41 - 332554 b38 * b53 + 242612 b38 * b56 + 197232 b39 * b42 - 332554 b39 * b54 
  + 242612 b39 * b57 + 3.7137e5 b40 * b43 + 325358 b40 * b58 + 3.7137e5 b41 * b44 + 325358 b41 * b59 
  + 3.7137e5 b42 * b45 + 325358 b42 * b60 - 68716 b43 * b46 - 3.9475e5 b43 * b61 - 68716 b44 * b47 - 3.9475e5 b44 * b62 
  - 68716 b45 * b48 - 3.9475e5 b45 * b63 - 115022 b46 * b49 - 38016 b46 * b64 - 115022 b47 * b50 - 38016 b47 * b65 
  - 115022 b48 * b51 - 38016 b48 * b66 - 19902 b49 * b52 - 14536 b49 * b67 - 19902 b50 * b53 - 14536 b50 * b68 
  - 19902 b51 * b54 - 14536 b51 * b69 - 125598 b52 * b70 - 125598 b53 * b71 - 125598 b54 * b72 - 120152 b55 * b58 
  + 4.144e4 b55 * b70 + 107338 b55 * b73 - 120152 b56 * b59 + 4.144e4 b56 * b71 + 107338 b56 * b74 - 120152 b57 * b60 
  + 4.144e4 b57 * b72 + 107338 b57 * b75 + 61076 b58 * b61 - 143698 b58 * b76 + 61076 b59 * b62 - 143698 b59 * b77 
  + 61076 b60 * b63 - 143698 b60 * b78 + 169966 b61 * b64 + 179394 b61 * b79 + 169966 b62 * b65 + 179394 b62 * b80 
  + 169966 b63 * b66 + 179394 b63 * b81 + 247944 b64 * b67 - 142824 b64 * b82 + 247944 b65 * b68 - 142824 b65 * b83 
  + 247944 b66 * b69 - 142824 b66 * b84 + 196852 b67 * b70 - 29744 b67 * b85 + 196852 b68 * b71 - 29744 b68 * b86 
  + 196852 b69 * b72 - 29744 b69 * b87 - 2.7933e5 b70 * b88 - 2.7933e5 b71 * b89 - 2.7933e5 b72 * b90 
  - 26164 b73 * b76 + 489316 b73 * b88 + 196984 b73 * b91 - 26164 b74 * b77 + 489316 b74 * b89 + 196984 b74 * b92 
  - 26164 b75 * b78 + 489316 b75 * b90 + 196984 b75 * b93 + 204876 b76 * b79 + 72196 b76 * b94 + 204876 b77 * b80 
  + 72196 b77 * b95 + 204876 b78 * b81 + 72196 b78 * b96 + 5.6723e5 b79 * b82 - 84624 b79 * b97 + 5.6723e5 b80 * b83 
  - 84624 b80 * b98 + 5.6723e5 b81 * b84 - 84624 b81 * b99 - 179476 b82 * b85 - 225448 b82 * b100 - 179476 b83 * b86 
  - 225448 b83 * b101 - 179476 b84 * b87 - 225448 b84 * b102 + 93988 b85 * b88 - 1.9832e5 b85 * b103 
  + 93988 b86 * b89 - 1.9832e5 b86 * b104 + 93988 b87 * b90 - 1.9832e5 b87 * b105 - 7.311e4 b88 * b106 
  - 7.311e4 b89 * b107 - 7.311e4 b90 * b108 + 97848 b91 * b94 - 2.2194e5 b91 * b106 + 97848 b92 * b95 
  - 2.2194e5 b92 * b107 + 97848 b93 * b96 - 2.2194e5 b93 * b108 - 378128 b94 * b97 - 378128 b95 * b98 
  - 378128 b96 * b99 + 48416 b97 * b100 + 48416 b98 * b101 + 48416 b99 * b102 - 4.0437e5 b100 * b103 
  - 4.0437e5 b101 * b104 - 4.0437e5 b102 * b105 - 8006 b103 * b106 - 8006 b104 * b107 - 8006 b105 * b108 
  ]/2

Subject To
 e1: b1 + b2 + b3 = 1
 e2: b4 + b5 + b6 = 1
 e3: b7 + b8 + b9 = 1
 e4: b10 + b11 + b12 = 1
 e5: b13 + b14 + b15 = 1
 e6: b16 + b17 + b18 = 1
 e7: b19 + b20 + b21 = 1
 e8: b22 + b23 + b24 = 1
 e9: b25 + b26 + b27 = 1
 e10: b28 + b29 + b30 = 1
 e11: b31 + b32 + b33 = 1
 e12: b34 + b35 + b36 = 1
 e13: b37 + b38 + b39 = 1
 e14: b40 + b41 + b42 = 1
 e15: b43 + b44 + b45 = 1
 e16: b46 + b47 + b48 = 1
 e17: b49 + b50 + b51 = 1
 e18: b52 + b53 + b54 = 1
 e19: b55 + b56 + b57 = 1
 e20: b58 + b59 + b60 = 1
 e21: b61 + b62 + b63 = 1
 e22: b64 + b65 + b66 = 1
 e23: b67 + b68 + b69 = 1
 e24: b70 + b71 + b72 = 1
 e25: b73 + b74 + b75 = 1
 e26: b76 + b77 + b78 = 1
 e27: b79 + b80 + b81 = 1
 e28: b82 + b83 + b84 = 1
 e29: b85 + b86 + b87 = 1
 e30: b88 + b89 + b90 = 1
 e31: b91 + b92 + b93 = 1
 e32: b94 + b95 + b96 = 1
 e33: b97 + b98 + b99 = 1
 e34: b100 + b101 + b102 = 1
 e35: b103 + b104 + b105 = 1
 e36: b106 + b107 + b108 = 1

Binary
 b1 b2 b3 b4 b5 b6 b7 b8 b9 b10 b11 b12 b13 b14 b15 b16 b17 b18 b19 b20 b21 b22 b23 b24 b25
 b26 b27 b28 b29 b30 b31 b32 b33 b34 b35 b36 b37 b38 b39 b40 b41 b42 b43 b44 b45 b46 b47 b48
 b49 b50 b51 b52 b53 b54 b55 b56 b57 b58 b59 b60 b61 b62 b63 b64 b65 b66 b67 b68 b69 b70 b71
 b72 b73 b74 b75 b76 b77 b78 b79 b80 b81 b82 b83 b84 b85 b86 b87 b88 b89 b90 b91 b92 b93 b94
 b95 b96 b97 b98 b99 b100 b101 b102 b103 b104 b105 b106 b107 b108

End
